num_offers = 40;
num_halls = 10;
start=[12,14,11,11,46,62,75,67,42,57,22,36,79,62,71,88,21,70,11,25,34,25,33,76,36,25,43,24,47,8,14,86,31,3,15,35,18,37,14,58];
end=[95,57,71,46,56,97,91,79,67,72,81,59,82,74,100,100,48,90,32,63,39,75,38,93,65,89,87,42,86,93,46,87,45,14,45,61,43,63,60,92];
price=[3079,4148,4695,1022,899,2022,651,947,316,1274,5812,1957,289,669,2100,394,2048,1531,1442,2651,345,2454,307,806,2131,2527,2810,688,3932,3077,1185,34,445,1093,828,2010,1843,1823,3596,956];
requirement=[380,614,362,407,784,707,269,665,420,549,433,439,689,754,202,881,423,808,573,469,315,721,555,214,429,470,585,419,612,767,904,586,776,917,408,439,554,641,334,282];
capacity=[683,936,248,965,405,787,716,950,370,461];
